p edge 150 149 66
e 1 57
e 1 113
e 2 144
e 2 117
e 3 38
e 3 87
e 4 55
e 4 64
e 5 78
e 6 7
e 6 136
e 6 41
e 8 122
e 8 120
e 9 94
e 9 129
e 9 52
e 10 96
e 10 117
e 10 112
e 10 149
e 10 91
e 11 66
e 11 141
e 12 20
e 12 109
e 13 30
e 13 142
e 13 115
e 13 19
e 14 80
e 14 79
e 15 23
e 16 139
e 17 31
e 18 115
e 19 29
e 20 64
e 21 82
e 22 92
e 22 109
e 23 106
e 24 59
e 25 137
e 26 132
e 26 42
e 27 91
e 28 130
e 28 120
e 29 87
e 29 127
e 30 105
e 31 100
e 31 117
e 32 111
e 32 85
e 33 145
e 33 52
e 34 133
e 35 143
e 35 147
e 35 62
e 35 74
e 36 52
e 36 60
e 37 144
e 38 141
e 39 50
e 40 139
e 41 84
e 41 46
e 42 86
e 43 95
e 43 140
e 43 82
e 44 116
e 45 118
e 45 52
e 46 101
e 47 75
e 48 76
e 49 132
e 50 120
e 50 117
e 51 98
e 51 131
e 51 72
e 53 133
e 54 122
e 56 65
e 58 137
e 59 108
e 60 69
e 61 138
e 62 91
e 63 112
e 64 71
e 64 128
e 65 133
e 66 113
e 67 137
e 67 68
e 68 114
e 69 77
e 70 123
e 70 134
e 70 112
e 72 106
e 72 113
e 73 89
e 73 95
e 74 150
e 75 92
e 76 81
e 76 138
e 77 78
e 77 131
e 79 99
e 79 106
e 80 102
e 82 125
e 83 138
e 85 109
e 86 110
e 86 133
e 88 104
e 90 96
e 93 106
e 97 136
e 98 138
e 99 124
e 99 146
e 101 110
e 102 125
e 103 116
e 104 127
e 107 109
e 107 138
e 108 114
e 112 126
e 114 133
e 114 115
e 116 124
e 119 135
e 119 145
e 121 149
e 123 139
e 127 134
e 137 148
